certificates/rado_a15_c258_N40.cnf
c Rad2 upper bound instance: x1 + 15*x2 - x3 = 258, interval [1,40]
p cnf 40 214
1 13 18 0
-1 -13 -18 0
1 19 28 0
-1 -19 -28 0
2 14 18 0
-2 -14 -18 0
2 19 29 0
-2 -19 -29 0
3 15 18 0
-3 -15 -18 0
3 19 30 0
-3 -19 -30 0
1 4 17 0
-1 -4 -17 0
4 16 18 0
-4 -16 -18 0
4 19 31 0
-4 -19 -31 0
2 5 17 0
-2 -5 -17 0
5 17 18 0
-5 -17 -18 0
5 19 32 0
-5 -19 -32 0
3 6 17 0
-3 -6 -17 0
6 18 0
-6 -18 0
6 19 33 0
-6 -19 -33 0
4 7 17 0
-4 -7 -17 0
7 18 19 0
-7 -18 -19 0
7 19 34 0
-7 -19 -34 0
5 8 17 0
-5 -8 -17 0
8 18 20 0
-8 -18 -20 0
8 19 35 0
-8 -19 -35 0
6 9 17 0
-6 -9 -17 0
9 18 21 0
-9 -18 -21 0
9 19 36 0
-9 -19 -36 0
7 10 17 0
-7 -10 -17 0
10 18 22 0
-10 -18 -22 0
10 19 37 0
-10 -19 -37 0
8 11 17 0
-8 -11 -17 0
11 18 23 0
-11 -18 -23 0
11 19 38 0
-11 -19 -38 0
9 12 17 0
-9 -12 -17 0
12 18 24 0
-12 -18 -24 0
12 19 39 0
-12 -19 -39 0
10 13 17 0
-10 -13 -17 0
13 18 25 0
-13 -18 -25 0
13 19 40 0
-13 -19 -40 0
11 14 17 0
-11 -14 -17 0
14 18 26 0
-14 -18 -26 0
12 15 17 0
-12 -15 -17 0
15 18 27 0
-15 -18 -27 0
13 16 17 0
-13 -16 -17 0
16 18 28 0
-16 -18 -28 0
14 17 0
-14 -17 0
17 18 29 0
-17 -18 -29 0
15 17 18 0
-15 -17 -18 0
18 30 0
-18 -30 0
1 16 19 0
-1 -16 -19 0
16 17 19 0
-16 -17 -19 0
18 19 31 0
-18 -19 -31 0
2 16 20 0
-2 -16 -20 0
17 20 0
-17 -20 0
18 20 32 0
-18 -20 -32 0
3 16 21 0
-3 -16 -21 0
17 18 21 0
-17 -18 -21 0
18 21 33 0
-18 -21 -33 0
4 16 22 0
-4 -16 -22 0
17 19 22 0
-17 -19 -22 0
18 22 34 0
-18 -22 -34 0
5 16 23 0
-5 -16 -23 0
17 20 23 0
-17 -20 -23 0
18 23 35 0
-18 -23 -35 0
6 16 24 0
-6 -16 -24 0
17 21 24 0
-17 -21 -24 0
18 24 36 0
-18 -24 -36 0
7 16 25 0
-7 -16 -25 0
17 22 25 0
-17 -22 -25 0
18 25 37 0
-18 -25 -37 0
8 16 26 0
-8 -16 -26 0
17 23 26 0
-17 -23 -26 0
18 26 38 0
-18 -26 -38 0
9 16 27 0
-9 -16 -27 0
17 24 27 0
-17 -24 -27 0
18 27 39 0
-18 -27 -39 0
10 16 28 0
-10 -16 -28 0
17 25 28 0
-17 -25 -28 0
18 28 40 0
-18 -28 -40 0
11 16 29 0
-11 -16 -29 0
17 26 29 0
-17 -26 -29 0
12 16 30 0
-12 -16 -30 0
17 27 30 0
-17 -27 -30 0
13 16 31 0
-13 -16 -31 0
17 28 31 0
-17 -28 -31 0
14 16 32 0
-14 -16 -32 0
17 29 32 0
-17 -29 -32 0
15 16 33 0
-15 -16 -33 0
17 30 33 0
-17 -30 -33 0
1 15 34 0
-1 -15 -34 0
16 34 0
-16 -34 0
17 31 34 0
-17 -31 -34 0
2 15 35 0
-2 -15 -35 0
16 17 35 0
-16 -17 -35 0
17 32 35 0
-17 -32 -35 0
3 15 36 0
-3 -15 -36 0
16 18 36 0
-16 -18 -36 0
17 33 36 0
-17 -33 -36 0
4 15 37 0
-4 -15 -37 0
16 19 37 0
-16 -19 -37 0
17 34 37 0
-17 -34 -37 0
5 15 38 0
-5 -15 -38 0
16 20 38 0
-16 -20 -38 0
17 35 38 0
-17 -35 -38 0
6 15 39 0
-6 -15 -39 0
16 21 39 0
-16 -21 -39 0
17 36 39 0
-17 -36 -39 0
7 15 40 0
-7 -15 -40 0
16 22 40 0
-16 -22 -40 0
17 37 40 0
-17 -37 -40 0
