certificates/rado_a15_c258_N40.drat
17 -38 -40 0
-19 -17 -38 0
-38 -40 0
d 17 -38 -40 0
-17 19 38 0
19 -40 0
17 12 -40 0
-17 -40 0
-19 -40 0
d -13 -19 -40 0
-40 0
17 -19 0
-19 0
13 0
-17 0
14 0
20 0
37 0
22 0
16 0
-4 0
-2 0
-31 0
-32 0
-34 0
-38 0
1 0
7 0
0
